\ LP format - for model browsing. Use MPS format to capture full model detail.
Minimize
  b
Subject To
 restr0: - 0.00145410719783061 b + a0 <= -0
 restr1: - 8.8425437705936746e-04 b + a1 <= -0
 restr2: - 1.0480051876255217e-04 b + a2 <= -0
 restr3: - 9.17005e-05 b + a3 <= -0
 restr4: - 0.0268289328032175 b + a4 <= -0
 restr5: - 6.4190317742051728e-04 b + a5 <= -0
 obj: - 0.9994630412705811 b + 41.30769228889999 a0 + 27.85714285701766 a1
   + 26 a2 + 26 a3 + 33 a4 + 37.85714285701767 a5 >= -0
Bounds
 b >= 1
 a0 >= 1
 a1 >= 1
 a2 >= 1
 a3 >= 1
 a4 >= 1
 a5 >= 1
Generals
 b a0 a1 a2 a3 a4 a5
End
